language ESSENCE' 1.0
letting actionFrom be [0, 2, 3, 2, 2]
letting actionTo be [2, 3, 2, 1, 1]
letting actionTypes be [1, 4, 7, 2, 2]
letting pointers be [[0, 1, 1, 1, 1, 1;int(0..5)], 
[0, 0, 0, 0, 1, 2;int(0..5)];int(0..1)]
letting statePlaces be [[-1, 3, 3, 4, 4, 4;int(0..5)], 
[-1, -1, 3, 4, 4, 4;int(0..5)];int(2..3)]
